(set-info :smt-lib-version 2.6)
(set-logic UF)
(set-info :source |Benchmarks from the paper: "Extending Sledgehammer with SMT Solvers" by Jasmin Blanchette, Sascha Bohme, and Lawrence C. Paulson, CADE 2011.  Translated to SMT2 by Andrew Reynolds and Morgan Deters.|)
(set-info :category "industrial")
(set-info :status unknown)
(declare-sort S1 0)
(declare-sort S2 0)
(declare-sort S3 0)
(declare-sort S4 0)
(declare-sort S5 0)
(declare-sort S6 0)
(declare-sort S7 0)
(declare-sort S8 0)
(declare-sort S9 0)
(declare-sort S10 0)
(declare-sort S11 0)
(declare-sort S12 0)
(declare-sort S13 0)
(declare-sort S14 0)
(declare-sort S15 0)
(declare-sort S16 0)
(declare-sort S17 0)
(declare-sort S18 0)
(declare-sort S19 0)
(declare-sort S20 0)
(declare-sort S21 0)
(declare-sort S22 0)
(declare-sort S23 0)
(declare-sort S24 0)
(declare-sort S25 0)
(declare-sort S26 0)
(declare-sort S27 0)
(declare-sort S28 0)
(declare-sort S29 0)
(declare-sort S30 0)
(declare-sort S31 0)
(declare-sort S32 0)
(declare-sort S33 0)
(declare-sort S34 0)
(declare-sort S35 0)
(declare-sort S36 0)
(declare-sort S37 0)
(declare-sort S38 0)
(declare-sort S39 0)
(declare-sort S40 0)
(declare-sort S41 0)
(declare-sort S42 0)
(declare-sort S43 0)
(declare-sort S44 0)
(declare-sort S45 0)
(declare-sort S46 0)
(declare-sort S47 0)
(declare-sort S48 0)
(declare-sort S49 0)
(declare-fun f1 () S1)
(declare-fun f2 () S1)
(declare-fun f3 (S3 S2) S4)
(declare-fun f4 () S3)
(declare-fun f5 (S5 S4) S4)
(declare-fun f6 (S6 S4) S5)
(declare-fun f7 () S6)
(declare-fun f8 (S7 S8) S4)
(declare-fun f9 (S9 S3) S7)
(declare-fun f10 () S9)
(declare-fun f11 (S10 S4) S3)
(declare-fun f12 () S10)
(declare-fun f13 () S6)
(declare-fun f14 () S4)
(declare-fun f15 () S3)
(declare-fun f16 () S2)
(declare-fun f17 (S11 S2) S2)
(declare-fun f18 (S12 S2) S11)
(declare-fun f19 () S12)
(declare-fun f20 () S2)
(declare-fun f21 (S13 S2) S8)
(declare-fun f22 (S2) S13)
(declare-fun f23 () S2)
(declare-fun f24 () S3)
(declare-fun f25 () S3)
(declare-fun f26 (S14 S3) S10)
(declare-fun f27 () S14)
(declare-fun f28 (S15 S2) S16)
(declare-fun f29 (S17 S16) S15)
(declare-fun f30 (S18 S15) S17)
(declare-fun f31 () S18)
(declare-fun f32 (S19 S16) S16)
(declare-fun f33 (S20 S16) S19)
(declare-fun f34 () S20)
(declare-fun f35 (S21 S2) S3)
(declare-fun f36 (S22 S3) S21)
(declare-fun f37 () S22)
(declare-fun f38 () S12)
(declare-fun f39 () S12)
(declare-fun f40 (S23 S2) S15)
(declare-fun f41 (S24 S15) S23)
(declare-fun f42 () S24)
(declare-fun f43 (S25 S8) S16)
(declare-fun f44 (S26 S15) S25)
(declare-fun f45 () S26)
(declare-fun f46 (S27 S11) S12)
(declare-fun f47 () S27)
(declare-fun f48 (S28 S8) S2)
(declare-fun f49 (S29 S11) S28)
(declare-fun f50 () S29)
(declare-fun f51 (S30 S2) S31)
(declare-fun f52 (S32 S2) S30)
(declare-fun f53 (S33 S30) S32)
(declare-fun f54 () S33)
(declare-fun f55 (S34 S8) S31)
(declare-fun f56 (S35 S30) S34)
(declare-fun f57 () S35)
(declare-fun f58 () S22)
(declare-fun f59 () S24)
(declare-fun f60 () S27)
(declare-fun f61 () S33)
(declare-fun f62 (S36 S15) S15)
(declare-fun f63 (S37 S2) S36)
(declare-fun f64 () S37)
(declare-fun f65 (S38 S4) S21)
(declare-fun f66 (S39 S4) S38)
(declare-fun f67 () S39)
(declare-fun f68 () S6)
(declare-fun f69 () S6)
(declare-fun f70 (S40 S16) S23)
(declare-fun f71 (S41 S16) S40)
(declare-fun f72 () S41)
(declare-fun f73 () S20)
(declare-fun f74 () S20)
(declare-fun f75 () S17)
(declare-fun f76 () S20)
(declare-fun f77 (S42 S31) S32)
(declare-fun f78 (S43 S31) S42)
(declare-fun f79 () S43)
(declare-fun f80 (S44 S31) S31)
(declare-fun f81 (S45 S31) S44)
(declare-fun f82 () S45)
(declare-fun f83 () S45)
(declare-fun f84 (S46 S31) S30)
(declare-fun f85 () S46)
(declare-fun f86 () S45)
(declare-fun f87 () S39)
(declare-fun f88 () S41)
(declare-fun f89 () S43)
(declare-fun f90 (S47 S8) S8)
(declare-fun f91 (S8) S47)
(declare-fun f92 (S2) S47)
(declare-fun f93 () S8)
(declare-fun f94 (S2) S13)
(declare-fun f95 (S8 S2) S1)
(declare-fun f96 (S2) S8)
(declare-fun f97 () S16)
(declare-fun f98 () S4)
(declare-fun f99 () S31)
(declare-fun f100 () S12)
(declare-fun f101 (S2 S8) S1)
(declare-fun f102 () S16)
(declare-fun f103 (S31 S31) S1)
(declare-fun f104 () S31)
(declare-fun f105 () S2)
(declare-fun f106 (S16 S16) S1)
(declare-fun f107 (S8) S47)
(declare-fun f108 (S16 S16) S48)
(declare-fun f109 (S31 S31) S49)
(assert (not (= f1 f2)))
(assert (forall ((?v0 S2)) (= (f3 f4 ?v0) (f5 (f6 f7 (f8 (f9 f10 (f11 f12 (f3 (f11 f12 (f5 (f6 f13 f14) (f3 f15 f16))) (f17 (f18 f19 f20) ?v0)))) (f21 (f22 f23) f16))) (f3 f24 ?v0)))))
(assert (forall ((?v0 S2)) (= (f3 f25 ?v0) (f5 (f6 f7 (f8 (f9 f10 (f11 f12 (f3 (f11 f12 (f3 f15 f16)) (f17 (f18 f19 ?v0) f20)))) (f21 (f22 f23) f16))) (f3 f24 ?v0)))))
(assert (forall ((?v0 S3) (?v1 S4) (?v2 S2)) (= (f3 (f11 (f26 f27 ?v0) ?v1) ?v2) (f5 (f6 f13 (f3 ?v0 ?v2)) ?v1))))
(assert (forall ((?v0 S15) (?v1 S16) (?v2 S2)) (= (f28 (f29 (f30 f31 ?v0) ?v1) ?v2) (f32 (f33 f34 (f28 ?v0 ?v2)) ?v1))))
(assert (forall ((?v0 S3) (?v1 S2) (?v2 S2)) (let ((?v_0 (f17 (f18 f38 ?v2) ?v1))) (= (f3 (f35 (f36 f37 ?v0) ?v1) ?v2) (f8 (f9 f10 ?v0) (f21 (f22 ?v_0) (f17 (f18 f39 ?v_0) ?v1)))))))
(assert (forall ((?v0 S15) (?v1 S2) (?v2 S2)) (let ((?v_0 (f17 (f18 f38 ?v2) ?v1))) (= (f28 (f40 (f41 f42 ?v0) ?v1) ?v2) (f43 (f44 f45 ?v0) (f21 (f22 ?v_0) (f17 (f18 f39 ?v_0) ?v1)))))))
(assert (forall ((?v0 S11) (?v1 S2) (?v2 S2)) (let ((?v_0 (f17 (f18 f38 ?v2) ?v1))) (= (f17 (f18 (f46 f47 ?v0) ?v1) ?v2) (f48 (f49 f50 ?v0) (f21 (f22 ?v_0) (f17 (f18 f39 ?v_0) ?v1)))))))
(assert (forall ((?v0 S30) (?v1 S2) (?v2 S2)) (let ((?v_0 (f17 (f18 f38 ?v2) ?v1))) (= (f51 (f52 (f53 f54 ?v0) ?v1) ?v2) (f55 (f56 f57 ?v0) (f21 (f22 ?v_0) (f17 (f18 f39 ?v_0) ?v1)))))))
(assert (forall ((?v0 S3) (?v1 S2) (?v2 S2)) (= (f3 (f35 (f36 f58 ?v0) ?v1) ?v2) (f3 ?v0 (f17 (f18 f39 ?v2) ?v1)))))
(assert (forall ((?v0 S15) (?v1 S2) (?v2 S2)) (= (f28 (f40 (f41 f59 ?v0) ?v1) ?v2) (f28 ?v0 (f17 (f18 f39 ?v2) ?v1)))))
(assert (forall ((?v0 S11) (?v1 S2) (?v2 S2)) (= (f17 (f18 (f46 f60 ?v0) ?v1) ?v2) (f17 ?v0 (f17 (f18 f39 ?v2) ?v1)))))
(assert (forall ((?v0 S30) (?v1 S2) (?v2 S2)) (= (f51 (f52 (f53 f61 ?v0) ?v1) ?v2) (f51 ?v0 (f17 (f18 f39 ?v2) ?v1)))))
(assert (forall ((?v0 S2) (?v1 S15) (?v2 S2)) (= (f28 (f62 (f63 f64 ?v0) ?v1) ?v2) (f28 ?v1 (f17 (f18 f39 ?v2) ?v0)))))
(assert (forall ((?v0 S4) (?v1 S4) (?v2 S2) (?v3 S2)) (let ((?v_0 (f11 f12 ?v0))) (= (f3 (f35 (f65 (f66 f67 ?v0) ?v1) ?v2) ?v3) (f5 (f6 f68 (f5 (f6 f7 (f3 (f11 f12 (f5 (f6 f69 ?v0) ?v1)) (f17 (f18 f19 ?v2) ?v3))) (f3 ?v_0 ?v3))) (f3 ?v_0 ?v2))))))
(assert (forall ((?v0 S16) (?v1 S16) (?v2 S2) (?v3 S2)) (let ((?v_0 (f29 f75 ?v0))) (= (f28 (f40 (f70 (f71 f72 ?v0) ?v1) ?v2) ?v3) (f32 (f33 f73 (f32 (f33 f74 (f28 (f29 f75 (f32 (f33 f76 ?v0) ?v1)) (f17 (f18 f19 ?v2) ?v3))) (f28 ?v_0 ?v3))) (f28 ?v_0 ?v2))))))
(assert (forall ((?v0 S31) (?v1 S31) (?v2 S2) (?v3 S2)) (let ((?v_0 (f84 f85 ?v0))) (= (f51 (f52 (f77 (f78 f79 ?v0) ?v1) ?v2) ?v3) (f80 (f81 f82 (f80 (f81 f83 (f51 (f84 f85 (f80 (f81 f86 ?v0) ?v1)) (f17 (f18 f19 ?v2) ?v3))) (f51 ?v_0 ?v3))) (f51 ?v_0 ?v2))))))
(assert (forall ((?v0 S4) (?v1 S4) (?v2 S2) (?v3 S2)) (let ((?v_0 (f11 f12 ?v0)) (?v_1 (f17 (f18 f19 ?v2) ?v3))) (= (f3 (f35 (f65 (f66 f87 ?v0) ?v1) ?v2) ?v3) (f5 (f6 f7 (f3 ?v_0 ?v3)) (f5 (f6 f68 (f3 (f11 f12 (f5 (f6 f69 ?v0) ?v1)) ?v_1)) (f3 ?v_0 ?v_1)))))))
(assert (forall ((?v0 S16) (?v1 S16) (?v2 S2) (?v3 S2)) (let ((?v_0 (f29 f75 ?v0)) (?v_1 (f17 (f18 f19 ?v2) ?v3))) (= (f28 (f40 (f70 (f71 f88 ?v0) ?v1) ?v2) ?v3) (f32 (f33 f74 (f28 ?v_0 ?v3)) (f32 (f33 f73 (f28 (f29 f75 (f32 (f33 f76 ?v0) ?v1)) ?v_1)) (f28 ?v_0 ?v_1)))))))
(assert (forall ((?v0 S31) (?v1 S31) (?v2 S2) (?v3 S2)) (let ((?v_0 (f84 f85 ?v0)) (?v_1 (f17 (f18 f19 ?v2) ?v3))) (= (f51 (f52 (f77 (f78 f89 ?v0) ?v1) ?v2) ?v3) (f80 (f81 f83 (f51 ?v_0 ?v3)) (f80 (f81 f82 (f51 (f84 f85 (f80 (f81 f86 ?v0) ?v1)) ?v_1)) (f51 ?v_0 ?v_1)))))))
(assert (let ((?v_0 (f9 f10 f25)) (?v_1 (f21 (f94 f20) f16))) (not (= (f8 ?v_0 (f90 (f91 (f90 (f92 f20) f93)) ?v_1)) (f5 (f6 f69 (f5 (f6 f7 (f8 (f9 f10 (f11 f12 (f3 (f11 f12 (f3 f15 f16)) (f17 (f18 f19 f20) f20)))) (f21 (f22 f23) f16))) (f3 f24 f20))) (f8 ?v_0 ?v_1))))))
(assert (= (f95 (f96 f20) f16) f1))
(assert (let ((?v_0 (f9 f10 f25))) (= (f8 ?v_0 (f21 (f22 f20) f16)) (f8 ?v_0 (f90 (f91 (f90 (f92 f20) f93)) (f21 (f94 f20) f16))))))
(assert (forall ((?v0 S16) (?v1 S16) (?v2 S2)) (let ((?v_0 (f21 (f22 f23) ?v2))) (= (f43 (f44 f45 (f40 (f70 (f71 f72 ?v0) ?v1) ?v2)) ?v_0) (f43 (f44 f45 (f40 (f70 (f71 f88 ?v0) ?v1) ?v2)) ?v_0)))))
(assert (forall ((?v0 S4) (?v1 S4) (?v2 S2)) (let ((?v_0 (f21 (f22 f23) ?v2))) (= (f8 (f9 f10 (f35 (f65 (f66 f67 ?v0) ?v1) ?v2)) ?v_0) (f8 (f9 f10 (f35 (f65 (f66 f87 ?v0) ?v1) ?v2)) ?v_0)))))
(assert (forall ((?v0 S31) (?v1 S31) (?v2 S2)) (let ((?v_0 (f21 (f22 f23) ?v2))) (= (f55 (f56 f57 (f52 (f77 (f78 f79 ?v0) ?v1) ?v2)) ?v_0) (f55 (f56 f57 (f52 (f77 (f78 f89 ?v0) ?v1) ?v2)) ?v_0)))))
(assert (forall ((?v0 S15) (?v1 S2) (?v2 S2)) (let ((?v_0 (f22 f23)) (?v_1 (f44 f45 ?v0))) (= (f43 ?v_1 (f21 ?v_0 (f17 (f18 f39 ?v1) ?v2))) (f32 (f33 f76 (f43 (f44 f45 (f40 (f41 f59 ?v0) ?v2)) (f21 ?v_0 ?v1))) (f43 ?v_1 (f21 ?v_0 ?v2)))))))
(assert (forall ((?v0 S11) (?v1 S2) (?v2 S2)) (let ((?v_0 (f22 f23)) (?v_1 (f49 f50 ?v0))) (= (f48 ?v_1 (f21 ?v_0 (f17 (f18 f39 ?v1) ?v2))) (f17 (f18 f39 (f48 (f49 f50 (f18 (f46 f60 ?v0) ?v2)) (f21 ?v_0 ?v1))) (f48 ?v_1 (f21 ?v_0 ?v2)))))))
(assert (forall ((?v0 S3) (?v1 S2) (?v2 S2)) (let ((?v_0 (f22 f23)) (?v_1 (f9 f10 ?v0))) (= (f8 ?v_1 (f21 ?v_0 (f17 (f18 f39 ?v1) ?v2))) (f5 (f6 f69 (f8 (f9 f10 (f35 (f36 f58 ?v0) ?v2)) (f21 ?v_0 ?v1))) (f8 ?v_1 (f21 ?v_0 ?v2)))))))
(assert (forall ((?v0 S30) (?v1 S2) (?v2 S2)) (let ((?v_0 (f22 f23)) (?v_1 (f56 f57 ?v0))) (= (f55 ?v_1 (f21 ?v_0 (f17 (f18 f39 ?v1) ?v2))) (f80 (f81 f86 (f55 (f56 f57 (f52 (f53 f61 ?v0) ?v2)) (f21 ?v_0 ?v1))) (f55 ?v_1 (f21 ?v_0 ?v2)))))))
(assert (forall ((?v0 S2)) (= (f95 (f96 (f17 (f18 f19 f20) ?v0)) f16) f1)))
(assert (forall ((?v0 S2)) (=> (= (f95 (f96 ?v0) f16) f1) (= (f95 (f96 (f17 (f18 f19 ?v0) f20)) f16) f1))))
(assert (forall ((?v0 S2)) (= (f21 (f22 ?v0) f23) f93)))
(assert (forall ((?v0 S2) (?v1 S8)) (let ((?v_0 (f92 ?v0))) (= (f90 ?v_0 ?v1) (f90 (f91 (f90 ?v_0 f93)) ?v1)))))
(assert (let ((?v_0 (f8 (f9 f10 f25) (f21 (f22 f20) f16)))) (= (f5 (f6 f69 (f8 (f9 f10 f4) (f21 (f22 f23) f20))) ?v_0) ?v_0)))
(assert (forall ((?v0 S11)) (= (f48 (f49 f50 ?v0) f93) f23)))
(assert (forall ((?v0 S15)) (= (f43 (f44 f45 ?v0) f93) f97)))
(assert (forall ((?v0 S3)) (= (f8 (f9 f10 ?v0) f93) f98)))
(assert (forall ((?v0 S30)) (= (f55 (f56 f57 ?v0) f93) f99)))
(assert (forall ((?v0 S11)) (= (f48 (f49 f50 ?v0) f93) f23)))
(assert (forall ((?v0 S15)) (= (f43 (f44 f45 ?v0) f93) f97)))
(assert (forall ((?v0 S3)) (= (f8 (f9 f10 ?v0) f93) f98)))
(assert (forall ((?v0 S30)) (= (f55 (f56 f57 ?v0) f93) f99)))
(assert (forall ((?v0 S31) (?v1 S2)) (= (= (f51 (f84 f85 ?v0) ?v1) f99) (and (= ?v0 f99) (not (= ?v1 f23))))))
(assert (forall ((?v0 S2) (?v1 S2)) (= (= (f17 (f18 f100 ?v0) ?v1) f23) (and (= ?v0 f23) (not (= ?v1 f23))))))
(assert (forall ((?v0 S4) (?v1 S2)) (= (= (f3 (f11 f12 ?v0) ?v1) f98) (and (= ?v0 f98) (not (= ?v1 f23))))))
(assert (forall ((?v0 S16) (?v1 S2)) (= (= (f28 (f29 f75 ?v0) ?v1) f97) (and (= ?v0 f97) (not (= ?v1 f23))))))
(assert (forall ((?v0 S16) (?v1 S16) (?v2 S16) (?v3 S16)) (let ((?v_0 (f33 f74 ?v0))) (= (f32 (f33 f73 (f32 ?v_0 ?v1)) (f32 (f33 f74 ?v2) ?v3)) (f32 (f33 f76 (f32 ?v_0 (f32 (f33 f73 ?v1) ?v3))) (f32 (f33 f74 (f32 (f33 f73 ?v0) ?v2)) ?v3))))))
(assert (forall ((?v0 S4) (?v1 S4) (?v2 S4) (?v3 S4)) (let ((?v_0 (f6 f7 ?v0))) (= (f5 (f6 f68 (f5 ?v_0 ?v1)) (f5 (f6 f7 ?v2) ?v3)) (f5 (f6 f69 (f5 ?v_0 (f5 (f6 f68 ?v1) ?v3))) (f5 (f6 f7 (f5 (f6 f68 ?v0) ?v2)) ?v3))))))
(assert (forall ((?v0 S31) (?v1 S31) (?v2 S31) (?v3 S31)) (let ((?v_0 (f81 f83 ?v0))) (= (f80 (f81 f82 (f80 ?v_0 ?v1)) (f80 (f81 f83 ?v2) ?v3)) (f80 (f81 f86 (f80 ?v_0 (f80 (f81 f82 ?v1) ?v3))) (f80 (f81 f83 (f80 (f81 f82 ?v0) ?v2)) ?v3))))))
(assert (forall ((?v0 S16) (?v1 S16) (?v2 S16) (?v3 S16)) (let ((?v_1 (f33 f74 ?v2)) (?v_0 (f33 f74 (f32 (f33 f73 ?v0) ?v2))) (?v_2 (f32 (f33 f73 ?v1) ?v3))) (= (f32 (f33 f73 (f32 (f33 f74 ?v0) ?v1)) (f32 ?v_1 ?v3)) (f32 (f33 f76 (f32 (f33 f76 (f32 ?v_0 ?v_2)) (f32 ?v_0 ?v3))) (f32 ?v_1 ?v_2))))))
(assert (forall ((?v0 S4) (?v1 S4) (?v2 S4) (?v3 S4)) (let ((?v_1 (f6 f7 ?v2)) (?v_0 (f6 f7 (f5 (f6 f68 ?v0) ?v2))) (?v_2 (f5 (f6 f68 ?v1) ?v3))) (= (f5 (f6 f68 (f5 (f6 f7 ?v0) ?v1)) (f5 ?v_1 ?v3)) (f5 (f6 f69 (f5 (f6 f69 (f5 ?v_0 ?v_2)) (f5 ?v_0 ?v3))) (f5 ?v_1 ?v_2))))))
(assert (forall ((?v0 S2)) (=> (= (f101 ?v0 f93) f1) false)))
(assert (forall ((?v0 S2) (?v1 S8) (?v2 S2)) (=> (=> (not (= (f101 ?v0 ?v1) f1)) (= ?v0 ?v2)) (= (f101 ?v0 (f90 (f92 ?v2) ?v1)) f1))))
(assert (forall ((?v0 S2) (?v1 S2) (?v2 S8)) (=> (= (f101 ?v0 (f90 (f92 ?v1) ?v2)) f1) (=> (=> (= ?v0 ?v1) false) (=> (=> (= (f101 ?v0 ?v2) f1) false) false)))))
(assert (forall ((?v0 S2) (?v1 S8) (?v2 S8)) (=> (=> (not (= (f101 ?v0 ?v1) f1)) (= (f101 ?v0 ?v2) f1)) (= (f101 ?v0 (f90 (f91 ?v2) ?v1)) f1))))
(assert (forall ((?v0 S2) (?v1 S8) (?v2 S8)) (=> (= (f101 ?v0 (f90 (f91 ?v1) ?v2)) f1) (=> (=> (= (f101 ?v0 ?v1) f1) false) (=> (=> (= (f101 ?v0 ?v2) f1) false) false)))))
(assert (forall ((?v0 S4) (?v1 S2)) (let ((?v_0 (f6 f13 f14))) (= (f5 ?v_0 (f3 (f11 f12 ?v0) ?v1)) (f3 (f11 f12 (f5 ?v_0 ?v0)) ?v1)))))
(assert (forall ((?v0 S16) (?v1 S2)) (let ((?v_0 (f33 f34 f102))) (= (f32 ?v_0 (f28 (f29 f75 ?v0) ?v1)) (f28 (f29 f75 (f32 ?v_0 ?v0)) ?v1)))))
(assert (forall ((?v0 S2) (?v1 S2)) (let ((?v_0 (f96 f23))) (= (= (f95 ?v_0 (f17 (f18 f100 ?v0) ?v1)) f1) (or (= (f95 ?v_0 ?v0) f1) (= ?v1 f23))))))
(assert (forall ((?v0 S31) (?v1 S2) (?v2 S2)) (let ((?v_0 (f84 f85 ?v0))) (=> (= (f103 f104 ?v0) f1) (= (= (f51 ?v_0 ?v1) (f51 ?v_0 ?v2)) (= ?v1 ?v2))))))
(assert (forall ((?v0 S2) (?v1 S2) (?v2 S2)) (let ((?v_0 (f18 f100 ?v0))) (=> (= (f95 (f96 f105) ?v0) f1) (= (= (f17 ?v_0 ?v1) (f17 ?v_0 ?v2)) (= ?v1 ?v2))))))
(assert (forall ((?v0 S16) (?v1 S2) (?v2 S2)) (let ((?v_0 (f29 f75 ?v0))) (=> (= (f106 f102 ?v0) f1) (= (= (f28 ?v_0 ?v1) (f28 ?v_0 ?v2)) (= ?v1 ?v2))))))
(assert (forall ((?v0 S31) (?v1 S2) (?v2 S2)) (let ((?v_0 (f84 f85 ?v0))) (=> (= (f103 f104 ?v0) f1) (= (= (f103 (f51 ?v_0 ?v1) (f51 ?v_0 ?v2)) f1) (= (f95 (f96 ?v1) ?v2) f1))))))
(assert (forall ((?v0 S2) (?v1 S2) (?v2 S2)) (let ((?v_0 (f18 f100 ?v0))) (=> (= (f95 (f96 f105) ?v0) f1) (= (= (f95 (f96 (f17 ?v_0 ?v1)) (f17 ?v_0 ?v2)) f1) (= (f95 (f96 ?v1) ?v2) f1))))))
(assert (forall ((?v0 S16) (?v1 S2) (?v2 S2)) (let ((?v_0 (f29 f75 ?v0))) (=> (= (f106 f102 ?v0) f1) (= (= (f106 (f28 ?v_0 ?v1) (f28 ?v_0 ?v2)) f1) (= (f95 (f96 ?v1) ?v2) f1))))))
(assert (forall ((?v0 S31) (?v1 S2) (?v2 S2)) (let ((?v_0 (f84 f85 ?v0))) (=> (= (f103 f104 ?v0) f1) (=> (= (f103 (f51 ?v_0 ?v1) (f51 ?v_0 ?v2)) f1) (= (f95 (f96 ?v1) ?v2) f1))))))
(assert (forall ((?v0 S2) (?v1 S2) (?v2 S2)) (let ((?v_0 (f18 f100 ?v0))) (=> (= (f95 (f96 f105) ?v0) f1) (=> (= (f95 (f96 (f17 ?v_0 ?v1)) (f17 ?v_0 ?v2)) f1) (= (f95 (f96 ?v1) ?v2) f1))))))
(assert (forall ((?v0 S16) (?v1 S2) (?v2 S2)) (let ((?v_0 (f29 f75 ?v0))) (=> (= (f106 f102 ?v0) f1) (=> (= (f106 (f28 ?v_0 ?v1) (f28 ?v_0 ?v2)) f1) (= (f95 (f96 ?v1) ?v2) f1))))))
(assert (forall ((?v0 S2) (?v1 S2) (?v2 S2)) (let ((?v_0 (f18 f100 ?v0))) (=> (= (f95 (f96 f23) ?v0) f1) (=> (= (f95 (f96 (f17 ?v_0 ?v1)) (f17 ?v_0 ?v2)) f1) (= (f95 (f96 ?v1) ?v2) f1))))))
(assert (forall ((?v0 S2) (?v1 S2) (?v2 S31)) (let ((?v_0 (f84 f85 ?v2))) (=> (= (f95 (f96 ?v0) ?v1) f1) (=> (= (f103 f104 ?v2) f1) (= (f103 (f51 ?v_0 ?v0) (f51 ?v_0 ?v1)) f1))))))
(assert (forall ((?v0 S2) (?v1 S2) (?v2 S2)) (let ((?v_0 (f18 f100 ?v2))) (=> (= (f95 (f96 ?v0) ?v1) f1) (=> (= (f95 (f96 f105) ?v2) f1) (= (f95 (f96 (f17 ?v_0 ?v0)) (f17 ?v_0 ?v1)) f1))))))
(assert (forall ((?v0 S2) (?v1 S2) (?v2 S16)) (let ((?v_0 (f29 f75 ?v2))) (=> (= (f95 (f96 ?v0) ?v1) f1) (=> (= (f106 f102 ?v2) f1) (= (f106 (f28 ?v_0 ?v0) (f28 ?v_0 ?v1)) f1))))))
(assert (forall ((?v0 S2) (?v1 S2) (?v2 S31)) (let ((?v_0 (f84 f85 ?v2))) (=> (= (f95 (f96 ?v0) ?v1) f1) (=> (= (f103 f99 ?v2) f1) (=> (= (f103 ?v2 f104) f1) (= (f103 (f51 ?v_0 ?v1) (f51 ?v_0 ?v0)) f1)))))))
(assert (forall ((?v0 S2) (?v1 S2) (?v2 S2)) (let ((?v_0 (f18 f100 ?v2))) (=> (= (f95 (f96 ?v0) ?v1) f1) (=> (= (f95 (f96 f23) ?v2) f1) (=> (= (f95 (f96 ?v2) f105) f1) (= (f95 (f96 (f17 ?v_0 ?v1)) (f17 ?v_0 ?v0)) f1)))))))
(assert (forall ((?v0 S2) (?v1 S2) (?v2 S16)) (let ((?v_0 (f29 f75 ?v2))) (=> (= (f95 (f96 ?v0) ?v1) f1) (=> (= (f106 f97 ?v2) f1) (=> (= (f106 ?v2 f102) f1) (= (f106 (f28 ?v_0 ?v1) (f28 ?v_0 ?v0)) f1)))))))
(assert (forall ((?v0 S31) (?v1 S2)) (=> (= (f103 f104 ?v0) f1) (=> (= (f95 (f96 f23) ?v1) f1) (= (f103 f104 (f51 (f84 f85 ?v0) ?v1)) f1)))))
(assert (forall ((?v0 S2) (?v1 S2)) (let ((?v_0 (f96 f105))) (=> (= (f95 ?v_0 ?v0) f1) (=> (= (f95 (f96 f23) ?v1) f1) (= (f95 ?v_0 (f17 (f18 f100 ?v0) ?v1)) f1))))))
(assert (forall ((?v0 S16) (?v1 S2)) (=> (= (f106 f102 ?v0) f1) (=> (= (f95 (f96 f23) ?v1) f1) (= (f106 f102 (f28 (f29 f75 ?v0) ?v1)) f1)))))
(assert (forall ((?v0 S2) (?v1 S2) (?v2 S15)) (let ((?v_0 (f22 f23)) (?v_1 (f44 f45 ?v2))) (= (f43 (f44 f45 (f62 (f63 f64 ?v0) ?v2)) (f21 ?v_0 ?v1)) (f32 (f33 f73 (f43 ?v_1 (f21 ?v_0 (f17 (f18 f39 ?v1) ?v0)))) (f43 ?v_1 (f21 ?v_0 ?v0)))))))
(assert (forall ((?v0 S4)) (= (f5 (f6 f13 f98) ?v0) f98)))
(assert (forall ((?v0 S16)) (= (f32 (f33 f34 f97) ?v0) f97)))
(assert (forall ((?v0 S2) (?v1 S2) (?v2 S15)) (let ((?v_0 (f22 f23)) (?v_1 (f44 f45 ?v2))) (= (f43 ?v_1 (f21 ?v_0 (f17 (f18 f39 ?v1) ?v0))) (f32 (f33 f76 (f43 (f44 f45 (f62 (f63 f64 ?v0) ?v2)) (f21 ?v_0 ?v1))) (f43 ?v_1 (f21 ?v_0 ?v0)))))))
(assert (forall ((?v0 S16) (?v1 S16) (?v2 S16)) (= (f32 (f33 f34 (f32 (f33 f76 ?v0) ?v1)) ?v2) (f32 (f33 f76 (f32 (f33 f34 ?v0) ?v2)) (f32 (f33 f34 ?v1) ?v2)))))
(assert (forall ((?v0 S4) (?v1 S4) (?v2 S4)) (= (f5 (f6 f13 (f5 (f6 f69 ?v0) ?v1)) ?v2) (f5 (f6 f69 (f5 (f6 f13 ?v0) ?v2)) (f5 (f6 f13 ?v1) ?v2)))))
(assert (forall ((?v0 S16) (?v1 S16) (?v2 S16)) (= (f32 (f33 f34 (f32 (f33 f73 ?v0) ?v1)) ?v2) (f32 (f33 f73 (f32 (f33 f34 ?v0) ?v2)) (f32 (f33 f34 ?v1) ?v2)))))
(assert (forall ((?v0 S4) (?v1 S4) (?v2 S4)) (= (f5 (f6 f13 (f5 (f6 f68 ?v0) ?v1)) ?v2) (f5 (f6 f68 (f5 (f6 f13 ?v0) ?v2)) (f5 (f6 f13 ?v1) ?v2)))))
(assert (forall ((?v0 S4) (?v1 S4) (?v2 S2)) (= (f3 (f11 f12 (f5 (f6 f13 ?v0) ?v1)) ?v2) (f5 (f6 f13 (f3 (f11 f12 ?v0) ?v2)) (f3 (f11 f12 ?v1) ?v2)))))
(assert (forall ((?v0 S16) (?v1 S16) (?v2 S2)) (= (f28 (f29 f75 (f32 (f33 f34 ?v0) ?v1)) ?v2) (f32 (f33 f34 (f28 (f29 f75 ?v0) ?v2)) (f28 (f29 f75 ?v1) ?v2)))))
(assert (forall ((?v0 S8)) (= (f90 (f107 ?v0) ?v0) f93)))
(assert (forall ((?v0 S8)) (= (f90 (f107 ?v0) f93) ?v0)))
(assert (forall ((?v0 S8)) (= (f90 (f107 f93) ?v0) f93)))
(assert (forall ((?v0 S2) (?v1 S8) (?v2 S8)) (=> (= (f101 ?v0 ?v1) f1) (= (f90 (f107 (f90 (f92 ?v0) ?v2)) ?v1) (f90 (f107 ?v2) ?v1)))))
(assert (forall ((?v0 S2) (?v1 S8) (?v2 S8)) (let ((?v_0 (f92 ?v0)) (?v_1 (f90 (f107 ?v1) ?v2))) (= (f90 (f107 (f90 ?v_0 ?v1)) ?v2) (ite (= (f101 ?v0 ?v2) f1) ?v_1 (f90 ?v_0 ?v_1))))))
(assert (forall ((?v0 S2)) (= (f51 (f84 f85 f104) ?v0) f104)))
(assert (forall ((?v0 S2)) (= (f3 (f11 f12 f14) ?v0) f14)))
(assert (forall ((?v0 S2)) (= (f17 (f18 f100 f105) ?v0) f105)))
(assert (forall ((?v0 S2)) (= (f28 (f29 f75 f102) ?v0) f102)))
(assert (forall ((?v0 S2) (?v1 S2) (?v2 S2)) (let ((?v_0 (f18 f100 ?v0))) (= (f17 ?v_0 (f17 (f18 f38 ?v1) ?v2)) (f17 (f18 f100 (f17 ?v_0 ?v1)) ?v2)))))
(assert (forall ((?v0 S4) (?v1 S2) (?v2 S2)) (let ((?v_0 (f11 f12 ?v0))) (= (f3 ?v_0 (f17 (f18 f38 ?v1) ?v2)) (f3 (f11 f12 (f3 ?v_0 ?v1)) ?v2)))))
(assert (forall ((?v0 S16) (?v1 S2) (?v2 S2)) (let ((?v_0 (f29 f75 ?v0))) (= (f28 ?v_0 (f17 (f18 f38 ?v1) ?v2)) (f28 (f29 f75 (f28 ?v_0 ?v1)) ?v2)))))
(assert (forall ((?v0 S31) (?v1 S2) (?v2 S2)) (let ((?v_0 (f84 f85 ?v0))) (= (f51 ?v_0 (f17 (f18 f38 ?v1) ?v2)) (f51 (f84 f85 (f51 ?v_0 ?v1)) ?v2)))))
(assert (forall ((?v0 S8) (?v1 S8) (?v2 S8)) (= (f90 (f107 (f90 (f91 ?v0) ?v1)) ?v2) (f90 (f91 (f90 (f107 ?v0) ?v2)) (f90 (f107 ?v1) ?v2)))))
(assert (forall ((?v0 S8) (?v1 S8)) (= (f90 (f91 (f90 (f107 ?v0) ?v1)) ?v1) (f90 (f91 ?v0) ?v1))))
(assert (forall ((?v0 S8) (?v1 S8)) (let ((?v_0 (f91 ?v0))) (= (f90 ?v_0 (f90 (f107 ?v1) ?v0)) (f90 ?v_0 ?v1)))))
(assert (forall ((?v0 S2) (?v1 S2) (?v2 S2) (?v3 S2)) (=> (= (f21 (f22 ?v0) ?v1) (f21 (f22 ?v2) ?v3)) (=> (= (f95 (f96 ?v0) ?v1) f1) (=> (= (f95 (f96 ?v2) ?v3) f1) (= ?v1 ?v3))))))
(assert (forall ((?v0 S16) (?v1 S16) (?v2 S16) (?v3 S16)) (=> (= (f108 ?v0 ?v1) (f108 ?v2 ?v3)) (=> (= (f106 ?v0 ?v1) f1) (=> (= (f106 ?v2 ?v3) f1) (= ?v1 ?v3))))))
(assert (forall ((?v0 S31) (?v1 S31) (?v2 S31) (?v3 S31)) (=> (= (f109 ?v0 ?v1) (f109 ?v2 ?v3)) (=> (= (f103 ?v0 ?v1) f1) (=> (= (f103 ?v2 ?v3) f1) (= ?v1 ?v3))))))
(assert (forall ((?v0 S2) (?v1 S2) (?v2 S2) (?v3 S2)) (=> (= (f21 (f22 ?v0) ?v1) (f21 (f22 ?v2) ?v3)) (=> (= (f95 (f96 ?v0) ?v1) f1) (=> (= (f95 (f96 ?v2) ?v3) f1) (= ?v0 ?v2))))))
(assert (forall ((?v0 S16) (?v1 S16) (?v2 S16) (?v3 S16)) (=> (= (f108 ?v0 ?v1) (f108 ?v2 ?v3)) (=> (= (f106 ?v0 ?v1) f1) (=> (= (f106 ?v2 ?v3) f1) (= ?v0 ?v2))))))
(assert (forall ((?v0 S31) (?v1 S31) (?v2 S31) (?v3 S31)) (=> (= (f109 ?v0 ?v1) (f109 ?v2 ?v3)) (=> (= (f103 ?v0 ?v1) f1) (=> (= (f103 ?v2 ?v3) f1) (= ?v0 ?v2))))))
(assert (forall ((?v0 S2) (?v1 S2) (?v2 S2) (?v3 S2)) (=> (= (f95 (f96 ?v0) ?v1) f1) (=> (= (f95 (f96 ?v2) ?v3) f1) (= (= (f21 (f22 ?v0) ?v1) (f21 (f22 ?v2) ?v3)) (and (= ?v0 ?v2) (= ?v1 ?v3)))))))
(assert (forall ((?v0 S16) (?v1 S16) (?v2 S16) (?v3 S16)) (=> (= (f106 ?v0 ?v1) f1) (=> (= (f106 ?v2 ?v3) f1) (= (= (f108 ?v0 ?v1) (f108 ?v2 ?v3)) (and (= ?v0 ?v2) (= ?v1 ?v3)))))))
(assert (forall ((?v0 S31) (?v1 S31) (?v2 S31) (?v3 S31)) (=> (= (f103 ?v0 ?v1) f1) (=> (= (f103 ?v2 ?v3) f1) (= (= (f109 ?v0 ?v1) (f109 ?v2 ?v3)) (and (= ?v0 ?v2) (= ?v1 ?v3)))))))
(assert (forall ((?v0 S31) (?v1 S2)) (let ((?v_0 (f51 (f84 f85 ?v0) ?v1))) (=> (= (f103 f104 ?v0) f1) (= (f103 ?v_0 (f80 (f81 f83 ?v0) ?v_0)) f1)))))
(assert (forall ((?v0 S2) (?v1 S2)) (let ((?v_0 (f17 (f18 f100 ?v0) ?v1))) (=> (= (f95 (f96 f105) ?v0) f1) (= (f95 (f96 ?v_0) (f17 (f18 f38 ?v0) ?v_0)) f1)))))
(assert (forall ((?v0 S16) (?v1 S2)) (let ((?v_0 (f28 (f29 f75 ?v0) ?v1))) (=> (= (f106 f102 ?v0) f1) (= (f106 ?v_0 (f32 (f33 f74 ?v0) ?v_0)) f1)))))
(assert (forall ((?v0 S31) (?v1 S2)) (=> (= (f103 f104 ?v0) f1) (= (f103 f104 (f80 (f81 f83 ?v0) (f51 (f84 f85 ?v0) ?v1))) f1))))
(assert (forall ((?v0 S2) (?v1 S2)) (let ((?v_0 (f96 f105))) (=> (= (f95 ?v_0 ?v0) f1) (= (f95 ?v_0 (f17 (f18 f38 ?v0) (f17 (f18 f100 ?v0) ?v1))) f1)))))
(assert (forall ((?v0 S16) (?v1 S2)) (=> (= (f106 f102 ?v0) f1) (= (f106 f102 (f32 (f33 f74 ?v0) (f28 (f29 f75 ?v0) ?v1))) f1))))
(assert (forall ((?v0 S15) (?v1 S8) (?v2 S16)) (= (f32 (f33 f34 (f43 (f44 f45 ?v0) ?v1)) ?v2) (f43 (f44 f45 (f29 (f30 f31 ?v0) ?v2)) ?v1))))
(assert (forall ((?v0 S3) (?v1 S8) (?v2 S4)) (= (f5 (f6 f13 (f8 (f9 f10 ?v0) ?v1)) ?v2) (f8 (f9 f10 (f11 (f26 f27 ?v0) ?v2)) ?v1))))
(assert (forall ((?v0 S15) (?v1 S8) (?v2 S16)) (= (f32 (f33 f34 (f43 (f44 f45 ?v0) ?v1)) ?v2) (f43 (f44 f45 (f29 (f30 f31 ?v0) ?v2)) ?v1))))
(assert (forall ((?v0 S3) (?v1 S8) (?v2 S4)) (= (f5 (f6 f13 (f8 (f9 f10 ?v0) ?v1)) ?v2) (f8 (f9 f10 (f11 (f26 f27 ?v0) ?v2)) ?v1))))
(assert (forall ((?v0 S4) (?v1 S2) (?v2 S2) (?v3 S2)) (let ((?v_0 (f11 f12 ?v0))) (=> (not (= ?v0 f98)) (= (f5 (f6 f13 (f3 ?v_0 (f17 (f18 f38 ?v1) ?v2))) (f3 ?v_0 (f17 (f18 f38 ?v3) ?v1))) (f3 (f11 f12 (f5 (f6 f13 (f3 ?v_0 ?v2)) (f3 ?v_0 ?v3))) ?v1))))))
(assert (forall ((?v0 S16) (?v1 S2) (?v2 S2) (?v3 S2)) (let ((?v_0 (f29 f75 ?v0))) (=> (not (= ?v0 f97)) (= (f32 (f33 f34 (f28 ?v_0 (f17 (f18 f38 ?v1) ?v2))) (f28 ?v_0 (f17 (f18 f38 ?v3) ?v1))) (f28 (f29 f75 (f32 (f33 f34 (f28 ?v_0 ?v2)) (f28 ?v_0 ?v3))) ?v1))))))
(assert (forall ((?v0 S11) (?v1 S8) (?v2 S2)) (let ((?v_0 (f49 f50 ?v0))) (let ((?v_1 (f48 ?v_0 ?v1))) (= (f48 ?v_0 (f90 (f107 ?v1) (f90 (f92 ?v2) f93))) (ite (= (f101 ?v2 ?v1) f1) (f17 (f18 f19 ?v_1) (f17 ?v0 ?v2)) ?v_1))))))
(assert (forall ((?v0 S31) (?v1 S2)) (let ((?v_0 (f51 (f84 f85 ?v0) ?v1))) (=> (= (f103 f99 ?v0) f1) (=> (= (f103 ?v0 f104) f1) (= (f103 (f80 (f81 f83 ?v0) ?v_0) ?v_0) f1))))))
(assert (forall ((?v0 S2) (?v1 S2)) (let ((?v_0 (f17 (f18 f100 ?v0) ?v1))) (=> (= (f95 (f96 f23) ?v0) f1) (=> (= (f95 (f96 ?v0) f105) f1) (= (f95 (f96 (f17 (f18 f38 ?v0) ?v_0)) ?v_0) f1))))))
(assert (forall ((?v0 S16) (?v1 S2)) (let ((?v_0 (f28 (f29 f75 ?v0) ?v1))) (=> (= (f106 f97 ?v0) f1) (=> (= (f106 ?v0 f102) f1) (= (f106 (f32 (f33 f74 ?v0) ?v_0) ?v_0) f1))))))
(assert (forall ((?v0 S4) (?v1 S4) (?v2 S2)) (=> (not (= ?v0 f98)) (= (f3 (f11 f12 (f5 (f6 f13 ?v1) ?v0)) ?v2) (f5 (f6 f13 (f3 (f11 f12 ?v1) ?v2)) (f3 (f11 f12 ?v0) ?v2))))))
(assert (forall ((?v0 S16) (?v1 S16) (?v2 S2)) (=> (not (= ?v0 f97)) (= (f28 (f29 f75 (f32 (f33 f34 ?v1) ?v0)) ?v2) (f32 (f33 f34 (f28 (f29 f75 ?v1) ?v2)) (f28 (f29 f75 ?v0) ?v2))))))
(assert (forall ((?v0 S31) (?v1 S2)) (=> (= (f103 f99 ?v0) f1) (= (f103 f99 (f51 (f84 f85 ?v0) ?v1)) f1))))
(assert (forall ((?v0 S2) (?v1 S2)) (let ((?v_0 (f96 f23))) (=> (= (f95 ?v_0 ?v0) f1) (= (f95 ?v_0 (f17 (f18 f100 ?v0) ?v1)) f1)))))
(assert (forall ((?v0 S16) (?v1 S2)) (=> (= (f106 f97 ?v0) f1) (= (f106 f97 (f28 (f29 f75 ?v0) ?v1)) f1))))
(assert (forall ((?v0 S2) (?v1 S8)) (let ((?v_0 (f92 ?v0))) (=> (= (f101 ?v0 ?v1) f1) (= (f90 ?v_0 (f90 (f107 ?v1) (f90 ?v_0 f93))) ?v1)))))
(assert (forall ((?v0 S2) (?v1 S8)) (let ((?v_0 (f92 ?v0))) (=> (not (= (f101 ?v0 ?v1) f1)) (= (f90 (f107 (f90 ?v_0 ?v1)) (f90 ?v_0 f93)) ?v1)))))
(assert (forall ((?v0 S2) (?v1 S8)) (let ((?v_0 (f92 ?v0))) (= (f90 ?v_0 (f90 (f107 ?v1) (f90 ?v_0 f93))) (f90 ?v_0 ?v1)))))
(assert (forall ((?v0 S8) (?v1 S2) (?v2 S8)) (let ((?v_0 (f107 ?v0)) (?v_1 (f92 ?v1))) (= (f90 ?v_0 (f90 ?v_1 ?v2)) (f90 (f107 (f90 ?v_0 (f90 ?v_1 f93))) ?v2)))))
(assert (forall ((?v0 S8) (?v1 S2) (?v2 S8)) (let ((?v_0 (f107 ?v0)) (?v_1 (f92 ?v1))) (= (f90 ?v_0 (f90 ?v_1 ?v2)) (f90 (f107 (f90 ?v_0 ?v2)) (f90 ?v_1 f93))))))
(assert (forall ((?v0 S2) (?v1 S2) (?v2 S2)) (let ((?v_0 (f18 f100 ?v0))) (= (f17 ?v_0 (f17 (f18 f39 ?v1) ?v2)) (f17 (f18 f38 (f17 ?v_0 ?v1)) (f17 ?v_0 ?v2))))))
(assert (forall ((?v0 S4) (?v1 S2) (?v2 S2)) (let ((?v_0 (f11 f12 ?v0))) (= (f3 ?v_0 (f17 (f18 f39 ?v1) ?v2)) (f5 (f6 f7 (f3 ?v_0 ?v1)) (f3 ?v_0 ?v2))))))
(assert (forall ((?v0 S16) (?v1 S2) (?v2 S2)) (let ((?v_0 (f29 f75 ?v0))) (= (f28 ?v_0 (f17 (f18 f39 ?v1) ?v2)) (f32 (f33 f74 (f28 ?v_0 ?v1)) (f28 ?v_0 ?v2))))))
(assert (forall ((?v0 S31) (?v1 S2) (?v2 S2)) (let ((?v_0 (f84 f85 ?v0))) (= (f51 ?v_0 (f17 (f18 f39 ?v1) ?v2)) (f80 (f81 f83 (f51 ?v_0 ?v1)) (f51 ?v_0 ?v2))))))
(assert (forall ((?v0 S15) (?v1 S2) (?v2 S2)) (let ((?v_0 (f22 f23))) (= (f43 (f44 f45 (f40 (f41 f42 ?v0) ?v1)) (f21 ?v_0 ?v2)) (f43 (f44 f45 ?v0) (f21 ?v_0 (f17 (f18 f38 ?v2) ?v1)))))))
(assert (forall ((?v0 S3) (?v1 S2) (?v2 S2)) (let ((?v_0 (f22 f23))) (= (f8 (f9 f10 (f35 (f36 f37 ?v0) ?v1)) (f21 ?v_0 ?v2)) (f8 (f9 f10 ?v0) (f21 ?v_0 (f17 (f18 f38 ?v2) ?v1)))))))
(assert (forall ((?v0 S30) (?v1 S2) (?v2 S2)) (let ((?v_0 (f22 f23))) (= (f55 (f56 f57 (f52 (f53 f54 ?v0) ?v1)) (f21 ?v_0 ?v2)) (f55 (f56 f57 ?v0) (f21 ?v_0 (f17 (f18 f38 ?v2) ?v1)))))))
(assert (forall ((?v0 S11) (?v1 S2) (?v2 S2)) (let ((?v_0 (f22 f23))) (= (f48 (f49 f50 (f18 (f46 f47 ?v0) ?v1)) (f21 ?v_0 ?v2)) (f48 (f49 f50 ?v0) (f21 ?v_0 (f17 (f18 f38 ?v2) ?v1)))))))
(check-sat)
(exit)
